(set-logic ALL)
(declare-const limit_VAR Int)
(assert (<= 4 limit_VAR))
(assert (<= 6 limit_VAR))
(assert (<= 8 limit_VAR))
(assert (not (> 6 limit_VAR)))
(assert (<= 0 limit_VAR))
(assert (<= 6 limit_VAR))
(assert (not (> 6 limit_VAR)))
(assert (<= 9 limit_VAR))
(assert (<= 12 limit_VAR))
(assert (<= 15 limit_VAR))
(assert (<= 18 limit_VAR))
(assert (<= 21 limit_VAR))
(assert (<= 24 limit_VAR))
(assert (not (> 20 limit_VAR)))
(assert (<= 0 limit_VAR))
(assert (<= 15 limit_VAR))
(assert (not (> 15 limit_VAR)))
(assert (<= 25 limit_VAR))
(assert (<= 30 limit_VAR))
(assert (<= 35 limit_VAR))
(assert (<= 40 limit_VAR))
(assert (<= 45 limit_VAR))
(assert (not (> 42 limit_VAR)))
(assert (<= 0 limit_VAR))
(assert (<= 35 limit_VAR))
(assert (not (> 35 limit_VAR)))
(assert (<= 49 limit_VAR))
(assert (<= 56 limit_VAR))
(assert (<= 63 limit_VAR))
(assert (<= 70 limit_VAR))
(assert (<= 77 limit_VAR))
(assert (<= 84 limit_VAR))
(assert (<= 91 limit_VAR))
(assert (<= 98 limit_VAR))
(assert (<= 105 limit_VAR))
(assert (<= 112 limit_VAR))
(assert (<= 119 limit_VAR))
(assert (not (> 110 limit_VAR)))
(assert (<= 0 limit_VAR))
(assert (<= 77 limit_VAR))
(assert (not (> 77 limit_VAR)))
(assert (<= 121 limit_VAR))
(assert (<= 132 limit_VAR))
(assert (<= 143 limit_VAR))
(assert (<= 154 limit_VAR))
(assert (<= 165 limit_VAR))
(assert (not (> 156 limit_VAR)))
(assert (<= 0 limit_VAR))
(assert (<= 143 limit_VAR))
(assert (not (> 143 limit_VAR)))
(assert (<= 169 limit_VAR))
(assert (<= 182 limit_VAR))
(assert (<= 195 limit_VAR))
(assert (<= 208 limit_VAR))
(assert (<= 221 limit_VAR))
(assert (<= 234 limit_VAR))
(assert (<= 247 limit_VAR))
(assert (<= 260 limit_VAR))
(assert (<= 273 limit_VAR))
(assert (<= 286 limit_VAR))
(assert (not (> 272 limit_VAR)))
(assert (<= 0 limit_VAR))
(assert (<= 221 limit_VAR))
(assert (not (> 221 limit_VAR)))
(assert (<= 289 limit_VAR))
(assert (<= 306 limit_VAR))
(assert (<= 323 limit_VAR))
(assert (<= 340 limit_VAR))
(assert (<= 357 limit_VAR))
(assert (not (> 342 limit_VAR)))
(assert (<= 0 limit_VAR))
(assert (<= 323 limit_VAR))
(assert (not (> 323 limit_VAR)))
(assert (<= 361 limit_VAR))
(assert (<= 380 limit_VAR))
(assert (<= 399 limit_VAR))
(assert (<= 418 limit_VAR))
(assert (<= 437 limit_VAR))
(assert (<= 456 limit_VAR))
(assert (<= 475 limit_VAR))
(assert (<= 494 limit_VAR))
(assert (<= 513 limit_VAR))
(assert (not (> 506 limit_VAR)))
(assert (<= 0 limit_VAR))
(assert (<= 437 limit_VAR))
(assert (not (> 437 limit_VAR)))
(assert (<= 529 limit_VAR))
(assert (<= 552 limit_VAR))
(assert (<= 575 limit_VAR))
(assert (<= 598 limit_VAR))
(assert (<= 621 limit_VAR))
(assert (<= 644 limit_VAR))
(assert (<= 667 limit_VAR))
(assert (<= 690 limit_VAR))
(assert (<= 713 limit_VAR))
(assert (<= 736 limit_VAR))
(assert (<= 759 limit_VAR))
(assert (<= 782 limit_VAR))
(assert (<= 805 limit_VAR))
(assert (<= 828 limit_VAR))
(assert (not (> 812 limit_VAR)))
(assert (<= 0 limit_VAR))
(assert (<= 667 limit_VAR))
(assert (not (> 667 limit_VAR)))
(assert (<= 841 limit_VAR))
(assert (<= 870 limit_VAR))
(assert (<= 899 limit_VAR))
(assert (<= 928 limit_VAR))
(assert (<= 957 limit_VAR))
(assert (not (> 930 limit_VAR)))
(assert (<= 0 limit_VAR))
(assert (<= 899 limit_VAR))
(assert (not (> 899 limit_VAR)))
(assert (<= 961 limit_VAR))
(assert (<= 992 limit_VAR))
(assert (<= 1023 limit_VAR))
(assert (<= 1054 limit_VAR))
(assert (<= 1085 limit_VAR))
(assert (<= 1116 limit_VAR))
(assert (<= 1147 limit_VAR))
(assert (<= 1178 limit_VAR))
(assert (<= 1209 limit_VAR))
(assert (<= 1240 limit_VAR))
(assert (<= 1271 limit_VAR))
(assert (<= 1302 limit_VAR))
(assert (<= 1333 limit_VAR))
(assert (<= 1364 limit_VAR))
(assert (not (> 1332 limit_VAR)))
(assert (<= 0 limit_VAR))
(assert (<= 1147 limit_VAR))
(assert (not (> 1147 limit_VAR)))
(assert (<= 1369 limit_VAR))
(assert (<= 1406 limit_VAR))
(assert (<= 1443 limit_VAR))
(assert (<= 1480 limit_VAR))
(assert (<= 1517 limit_VAR))
(assert (<= 1554 limit_VAR))
(assert (<= 1591 limit_VAR))
(assert (<= 1628 limit_VAR))
(assert (<= 1665 limit_VAR))
(assert (not (> 1640 limit_VAR)))
(assert (<= 0 limit_VAR))
(assert (<= 1517 limit_VAR))
(assert (not (> 1517 limit_VAR)))
(assert (<= 1681 limit_VAR))
(assert (<= 1722 limit_VAR))
(assert (<= 1763 limit_VAR))
(assert (<= 1804 limit_VAR))
(assert (<= 1845 limit_VAR))
(assert (not (> 1806 limit_VAR)))
(assert (<= 0 limit_VAR))
(assert (<= 1763 limit_VAR))
(assert (not (> 1763 limit_VAR)))
(assert (<= 1849 limit_VAR))
(assert (<= 1892 limit_VAR))
(assert (<= 1935 limit_VAR))
(assert (<= 1978 limit_VAR))
(assert (<= 2021 limit_VAR))
(assert (<= 2064 limit_VAR))
(assert (<= 2107 limit_VAR))
(assert (<= 2150 limit_VAR))
(assert (<= 2193 limit_VAR))
(assert (not (> 2162 limit_VAR)))
(assert (<= 0 limit_VAR))
(assert (<= 2021 limit_VAR))
(assert (not (> 2021 limit_VAR)))
(assert (<= 2209 limit_VAR))
(assert (<= 2256 limit_VAR))
(assert (<= 2303 limit_VAR))
(assert (<= 2350 limit_VAR))
(assert (<= 2397 limit_VAR))
(assert (<= 2444 limit_VAR))
(assert (<= 2491 limit_VAR))
(assert (<= 2538 limit_VAR))
(assert (<= 2585 limit_VAR))
(assert (<= 2632 limit_VAR))
(assert (<= 2679 limit_VAR))
(assert (<= 2726 limit_VAR))
(assert (<= 2773 limit_VAR))
(assert (not (> 2756 limit_VAR)))
(assert (<= 0 limit_VAR))
(assert (<= 2491 limit_VAR))
(assert (not (> 2491 limit_VAR)))
(assert (<= 2809 limit_VAR))
(assert (<= 2862 limit_VAR))
(assert (<= 2915 limit_VAR))
(assert (<= 2968 limit_VAR))
(assert (<= 3021 limit_VAR))
(assert (<= 3074 limit_VAR))
(assert (<= 3127 limit_VAR))
(assert (<= 3180 limit_VAR))
(assert (<= 3233 limit_VAR))
(assert (<= 3286 limit_VAR))
(assert (<= 3339 limit_VAR))
(assert (<= 3392 limit_VAR))
(assert (<= 3445 limit_VAR))
(assert (not (> 3422 limit_VAR)))
(assert (<= 0 limit_VAR))
(assert (<= 3127 limit_VAR))
(assert (not (> 3127 limit_VAR)))
(assert (<= 3481 limit_VAR))
(assert (<= 3540 limit_VAR))
(assert (<= 3599 limit_VAR))
(assert (<= 3658 limit_VAR))
(assert (<= 3717 limit_VAR))
(assert (not (> 3660 limit_VAR)))
(assert (<= 0 limit_VAR))
(assert (<= 3599 limit_VAR))
(assert (not (> 3599 limit_VAR)))
(assert (<= 3721 limit_VAR))
(assert (<= 3782 limit_VAR))
(assert (<= 3843 limit_VAR))
(assert (<= 3904 limit_VAR))
(assert (<= 3965 limit_VAR))
(assert (<= 4026 limit_VAR))
(assert (<= 4087 limit_VAR))
(assert (<= 4148 limit_VAR))
(assert (<= 4209 limit_VAR))
(assert (<= 4270 limit_VAR))
(assert (<= 4331 limit_VAR))
(assert (<= 4392 limit_VAR))
(assert (<= 4453 limit_VAR))
(assert (not (> 4422 limit_VAR)))
(assert (<= 0 limit_VAR))
(assert (<= 4087 limit_VAR))
(assert (not (> 4087 limit_VAR)))
(assert (<= 4489 limit_VAR))
(assert (<= 4556 limit_VAR))
(assert (<= 4623 limit_VAR))
(assert (<= 4690 limit_VAR))
(assert (<= 4757 limit_VAR))
(assert (<= 4824 limit_VAR))
(assert (<= 4891 limit_VAR))
(assert (<= 4958 limit_VAR))
(assert (<= 5025 limit_VAR))
(assert (not (> 4970 limit_VAR)))
(assert (<= 0 limit_VAR))
(assert (<= 4757 limit_VAR))
(assert (not (> 4757 limit_VAR)))
(assert (<= 5041 limit_VAR))
(assert (<= 5112 limit_VAR))
(assert (<= 5183 limit_VAR))
(assert (<= 5254 limit_VAR))
(assert (<= 5325 limit_VAR))
(assert (not (> 5256 limit_VAR)))
(assert (<= 0 limit_VAR))
(assert (<= 5183 limit_VAR))
(assert (not (> 5183 limit_VAR)))
(assert (<= 5329 limit_VAR))
(assert (<= 5402 limit_VAR))
(assert (<= 5475 limit_VAR))
(assert (<= 5548 limit_VAR))
(assert (<= 5621 limit_VAR))
(assert (<= 5694 limit_VAR))
(assert (<= 5767 limit_VAR))
(assert (<= 5840 limit_VAR))
(assert (<= 5913 limit_VAR))
(assert (<= 5986 limit_VAR))
(assert (<= 6059 limit_VAR))
(assert (<= 6132 limit_VAR))
(assert (<= 6205 limit_VAR))
(assert (not (> 6162 limit_VAR)))
(assert (<= 0 limit_VAR))
(assert (<= 5767 limit_VAR))
(assert (not (> 5767 limit_VAR)))
(assert (<= 6241 limit_VAR))
(assert (<= 6320 limit_VAR))
(assert (<= 6399 limit_VAR))
(assert (<= 6478 limit_VAR))
(assert (<= 6557 limit_VAR))
(assert (<= 6636 limit_VAR))
(assert (<= 6715 limit_VAR))
(assert (<= 6794 limit_VAR))
(assert (<= 6873 limit_VAR))
(assert (not (> 6806 limit_VAR)))
(assert (<= 0 limit_VAR))
(assert (<= 6557 limit_VAR))
(assert (not (> 6557 limit_VAR)))
(assert (<= 6889 limit_VAR))
(assert (<= 6972 limit_VAR))
(assert (<= 7055 limit_VAR))
(assert (<= 7138 limit_VAR))
(assert (<= 7221 limit_VAR))
(assert (<= 7304 limit_VAR))
(assert (<= 7387 limit_VAR))
(assert (<= 7470 limit_VAR))
(assert (<= 7553 limit_VAR))
(assert (<= 7636 limit_VAR))
(assert (<= 7719 limit_VAR))
(assert (<= 7802 limit_VAR))
(assert (<= 7885 limit_VAR))
(assert (not (> 7832 limit_VAR)))
(assert (<= 0 limit_VAR))
(assert (<= 7387 limit_VAR))
(assert (not (> 7387 limit_VAR)))
(assert (<= 7921 limit_VAR))
(assert (<= 8010 limit_VAR))
(assert (<= 8099 limit_VAR))
(assert (<= 8188 limit_VAR))
(assert (<= 8277 limit_VAR))
(assert (<= 8366 limit_VAR))
(assert (<= 8455 limit_VAR))
(assert (<= 8544 limit_VAR))
(assert (<= 8633 limit_VAR))
(assert (<= 8722 limit_VAR))
(assert (<= 8811 limit_VAR))
(assert (<= 8900 limit_VAR))
(assert (<= 8989 limit_VAR))
(assert (<= 9078 limit_VAR))
(assert (<= 9167 limit_VAR))
(assert (<= 9256 limit_VAR))
(assert (<= 9345 limit_VAR))
(assert (not (> 9312 limit_VAR)))
(assert (<= 0 limit_VAR))
(assert (<= 8633 limit_VAR))
(assert (not (> 8633 limit_VAR)))
(assert (<= 9409 limit_VAR))
(assert (<= 9506 limit_VAR))
(assert (<= 9603 limit_VAR))
(assert (<= 9700 limit_VAR))
(assert (<= 9797 limit_VAR))
(assert (<= 9894 limit_VAR))
(assert (<= 9991 limit_VAR))
(assert (<= 10088 limit_VAR))
(assert (<= 10185 limit_VAR))
(assert (not (> 10100 limit_VAR)))
(assert (<= 0 limit_VAR))
(assert (<= 9797 limit_VAR))
(assert (not (> 9797 limit_VAR)))
(assert (<= 10201 limit_VAR))
(assert (<= 10302 limit_VAR))
(assert (<= 10403 limit_VAR))
(assert (<= 10504 limit_VAR))
(assert (<= 10605 limit_VAR))
(assert (not (> 10506 limit_VAR)))
(assert (<= 0 limit_VAR))
(assert (<= 10403 limit_VAR))
(assert (not (> 10403 limit_VAR)))
(assert (<= 10609 limit_VAR))
(assert (<= 10712 limit_VAR))
(assert (<= 10815 limit_VAR))
(assert (<= 10918 limit_VAR))
(assert (<= 11021 limit_VAR))
(assert (<= 11124 limit_VAR))
(assert (not (<= 11227 limit_VAR)))
(assert (> 11342 limit_VAR))
(assert (> 11235 limit_VAR))
(assert (not (> 11128 limit_VAR)))
(assert (<= 0 limit_VAR))
(assert (not (<= 11021 limit_VAR)))
(check-sat)
(get-value (limit_VAR))
